projected/problems_b25_r0_d7_m100_s666/_DIMACS/b25_d7_r0_s666_062.cnf
p cnf 167 217 25
c p show 1 2 3 4 5 6 7 8 9 10 11 12 13 14 15 16 17 18 19 20 21 22 23 24 25
-26 -1 1 0
-27 -24 0
-27 6 0
-28 27 0
-28 26 0
-29 -7 13 0
-30 -20 0
-30 11 0
-31 30 0
-31 29 0
-32 31 0
-32 28 0
-33 1 -19 0
-34 -6 0
-34 -17 0
-35 17 0
-35 6 0
-36 35 34 0
-37 36 0
-37 33 0
-38 -21 0
-38 25 0
-39 -20 9 0
-40 39 38 0
-41 40 37 0
-42 41 32 0
-43 -6 0
-43 -13 0
-44 17 0
-44 24 0
-45 44 43 0
-46 23 -24 0
-47 -18 0
-47 -10 0
-48 47 46 0
-49 48 45 0
-50 -5 0
-50 -7 0
-51 5 25 0
-52 51 0
-52 50 0
-53 -3 -6 0
-54 3 0
-54 24 0
-55 54 0
-55 53 0
-56 55 0
-56 52 0
-57 56 0
-57 49 0
-58 57 42 0
-59 -11 0
-59 14 0
-60 -20 0
-60 -13 0
-61 60 0
-61 59 0
-62 -22 0
-62 -12 0
-63 1 0
-63 -12 0
-64 63 0
-64 62 0
-65 64 61 0
-66 22 12 0
-67 -1 12 0
-68 67 66 0
-69 11 -14 0
-70 20 13 0
-71 70 69 0
-72 71 68 0
-73 72 0
-73 65 0
-74 4 -23 0
-75 1 0
-75 -11 0
-76 75 0
-76 74 0
-77 -2 -11 0
-78 17 0
-78 8 0
-79 78 0
-79 77 0
-80 79 76 0
-81 80 0
-81 73 0
-82 -22 6 0
-83 -7 -1 0
-84 83 0
-84 82 0
-85 12 -7 0
-86 12 -18 0
-87 86 0
-87 85 0
-88 87 0
-88 84 0
-89 -23 0
-89 -10 0
-90 17 -17 0
-91 90 89 0
-92 -25 17 0
-93 14 2 0
-94 93 0
-94 92 0
-95 94 0
-95 91 0
-96 95 0
-96 88 0
-97 96 81 0
-98 97 0
-98 58 0
-99 16 -18 0
-100 -20 0
-100 6 0
-101 100 99 0
-102 4 19 0
-103 -11 -9 0
-104 103 102 0
-105 104 101 0
-106 25 6 0
-107 6 9 0
-108 107 106 0
-109 -4 0
-109 24 0
-110 20 23 0
-111 -23 -20 0
-112 111 0
-112 110 0
-113 112 0
-113 109 0
-114 113 0
-114 108 0
-115 114 105 0
-116 3 1 0
-117 11 0
-117 9 0
-118 117 116 0
-119 5 8 0
-120 14 0
-120 11 0
-121 120 119 0
-122 121 118 0
-123 -7 -13 0
-124 5 0
-124 20 0
-125 124 0
-125 123 0
-126 -14 23 0
-127 -21 -10 0
-128 127 0
-128 126 0
-129 128 125 0
-130 129 122 0
-131 130 0
-131 115 0
-132 6 0
-132 -22 0
-133 -4 6 0
-134 133 0
-134 132 0
-135 -18 0
-135 -25 0
-136 -11 0
-136 -14 0
-137 136 0
-137 135 0
-138 137 134 0
-139 -15 0
-139 19 0
-140 9 0
-140 -16 0
-141 140 139 0
-142 -2 -17 0
-143 -10 5 0
-144 143 142 0
-145 144 141 0
-146 145 138 0
-147 23 -2 0
-148 -10 0
-148 10 0
-149 148 0
-149 147 0
-150 15 23 0
-151 -15 0
-152 151 150 0
-153 152 149 0
-154 2 13 0
-155 -7 17 0
-156 155 0
-156 154 0
-157 -11 0
-157 19 0
-158 -19 0
-158 11 0
-159 158 157 0
-160 -13 0
-160 1 0
-161 -1 0
-161 13 0
-162 161 160 0
-163 162 159 0
-164 163 156 0
-165 164 153 0
-166 165 0
-166 146 0
-167 166 131 0
167 98 0
-62 -66 0
-66 -62 0
-63 -67 0
-67 -63 0
-68 -64 0
-69 -59 0
-60 -70 0
-70 -60 0
-71 -61 0
-61 -71 0
