projected/problems_b25_r0_d7_m100_s666/b25_d7_r0_s666_062.smt2
(set-logic QF_UF)
(declare-fun A0 () Bool)
(declare-fun A1 () Bool)
(declare-fun A2 () Bool)
(declare-fun A3 () Bool)
(declare-fun A4 () Bool)
(declare-fun A5 () Bool)
(declare-fun A6 () Bool)
(declare-fun A7 () Bool)
(declare-fun A8 () Bool)
(declare-fun A9 () Bool)
(declare-fun A10 () Bool)
(declare-fun A11 () Bool)
(declare-fun A12 () Bool)
(declare-fun A13 () Bool)
(declare-fun A14 () Bool)
(declare-fun A15 () Bool)
(declare-fun A16 () Bool)
(declare-fun A17 () Bool)
(declare-fun A18 () Bool)
(declare-fun A19 () Bool)
(declare-fun A20 () Bool)
(declare-fun A21 () Bool)
(declare-fun A22 () Bool)
(declare-fun A23 () Bool)
(declare-fun A24 () Bool)
(assert (let ((.def_0 (not A0))) (let ((.def_1 (or .def_0 A0))) (let ((.def_2 (not A23))) (let ((.def_3 (and .def_2 A5))) (let ((.def_4 (and .def_3 .def_1))) (let ((.def_5 (not .def_4))) (let ((.def_6 (not A12))) (let ((.def_7 (and A6 .def_6))) (let ((.def_8 (not .def_7))) (let ((.def_9 (not A10))) (let ((.def_10 (or A19 .def_9))) (let ((.def_11 (not .def_10))) (let ((.def_12 (and .def_11 .def_8))) (let ((.def_13 (not .def_12))) (let ((.def_14 (or .def_13 .def_5))) (let ((.def_15 (not .def_14))) (let ((.def_16 (and .def_0 A18))) (let ((.def_17 (not .def_16))) (let ((.def_18 (not A5))) (let ((.def_19 (= A16 .def_18))) (let ((.def_20 (not .def_19))) (let ((.def_21 (and .def_20 .def_17))) (let ((.def_22 (not .def_21))) (let ((.def_23 (not A24))) (let ((.def_24 (or A20 .def_23))) (let ((.def_25 (not A8))) (let ((.def_26 (and A19 .def_25))) (let ((.def_27 (and .def_26 .def_24))) (let ((.def_28 (and .def_27 .def_22))) (let ((.def_29 (not .def_28))) (let ((.def_30 (or .def_29 .def_15))) (let ((.def_31 (and .def_18 .def_6))) (let ((.def_32 (not .def_31))) (let ((.def_33 (and A16 A23))) (let ((.def_34 (not .def_33))) (let ((.def_35 (and .def_34 .def_32))) (let ((.def_36 (not .def_35))) (let ((.def_37 (not A22))) (let ((.def_38 (and .def_37 A23))) (let ((.def_39 (or A17 A9))) (let ((.def_40 (and .def_39 .def_38))) (let ((.def_41 (not .def_40))) (let ((.def_42 (or .def_41 .def_36))) (let ((.def_43 (not .def_42))) (let ((.def_44 (or A4 A6))) (let ((.def_45 (or A4 A24))) (let ((.def_46 (not .def_45))) (let ((.def_47 (or .def_46 .def_44))) (let ((.def_48 (not .def_47))) (let ((.def_49 (not A2))) (let ((.def_50 (or .def_49 .def_18))) (let ((.def_51 (or .def_49 .def_2))) (let ((.def_52 (not .def_51))) (let ((.def_53 (and .def_52 .def_50))) (let ((.def_54 (and .def_53 .def_48))) (let ((.def_55 (not .def_54))) (let ((.def_56 (or .def_55 .def_43))) (let ((.def_57 (not .def_56))) (let ((.def_58 (or .def_57 .def_30))) (let ((.def_59 (not .def_58))) (let ((.def_60 (not A11))) (let ((.def_61 (not A21))) (let ((.def_62 (and .def_61 .def_60))) (let ((.def_63 (not .def_62))) (let ((.def_64 (and A0 .def_60))) (let ((.def_65 (not .def_64))) (let ((.def_66 (or .def_65 .def_63))) (let ((.def_67 (not A13))) (let ((.def_68 (or A10 .def_67))) (let ((.def_69 (not A19))) (let ((.def_70 (and .def_69 .def_6))) (let ((.def_71 (not .def_70))) (let ((.def_72 (or .def_71 .def_68))) (let ((.def_73 (not .def_72))) (let ((.def_74 (= .def_73 .def_66))) (let ((.def_75 (not .def_74))) (let ((.def_76 (not A3))) (let ((.def_77 (and .def_76 A22))) (let ((.def_78 (not .def_77))) (let ((.def_79 (or .def_0 A10))) (let ((.def_80 (not .def_79))) (let ((.def_81 (and .def_80 .def_78))) (let ((.def_82 (not .def_81))) (let ((.def_83 (not A1))) (let ((.def_84 (or .def_83 .def_9))) (let ((.def_85 (and A16 A7))) (let ((.def_86 (and .def_85 .def_84))) (let ((.def_87 (not .def_86))) (let ((.def_88 (and .def_87 .def_82))) (let ((.def_89 (or .def_88 .def_75))) (let ((.def_90 (and A21 .def_18))) (let ((.def_91 (not .def_90))) (let ((.def_92 (and A6 A0))) (let ((.def_93 (not .def_92))) (let ((.def_94 (and .def_93 .def_91))) (let ((.def_95 (not .def_94))) (let ((.def_96 (and .def_60 A6))) (let ((.def_97 (not .def_96))) (let ((.def_98 (not A17))) (let ((.def_99 (or A11 .def_98))) (let ((.def_100 (and .def_99 .def_97))) (let ((.def_101 (not .def_100))) (let ((.def_102 (or .def_101 .def_95))) (let ((.def_103 (or A22 A9))) (let ((.def_104 (not A16))) (let ((.def_105 (or A16 .def_104))) (let ((.def_106 (not .def_105))) (let ((.def_107 (and .def_106 .def_103))) (let ((.def_108 (and A24 .def_104))) (let ((.def_109 (and .def_67 .def_83))) (let ((.def_110 (or .def_109 .def_108))) (let ((.def_111 (or .def_110 .def_107))) (let ((.def_112 (or .def_111 .def_102))) (let ((.def_113 (and .def_112 .def_89))) (let ((.def_114 (or .def_113 .def_59))) (let ((.def_115 (or A15 .def_98))) (let ((.def_116 (not .def_115))) (let ((.def_117 (and .def_69 A5))) (let ((.def_118 (not .def_117))) (let ((.def_119 (and .def_118 .def_116))) (let ((.def_120 (not .def_119))) (let ((.def_121 (or A3 A18))) (let ((.def_122 (not .def_121))) (let ((.def_123 (and A10 A8))) (let ((.def_124 (and .def_123 .def_122))) (let ((.def_125 (not .def_124))) (let ((.def_126 (or .def_125 .def_120))) (let ((.def_127 (not .def_126))) (let ((.def_128 (or A24 A5))) (let ((.def_129 (and .def_18 .def_25))) (let ((.def_130 (not .def_129))) (let ((.def_131 (or .def_130 .def_128))) (let ((.def_132 (and .def_76 A23))) (let ((.def_133 (not .def_132))) (let ((.def_134 (= A22 .def_69))) (let ((.def_135 (not .def_134))) (let ((.def_136 (or .def_135 .def_133))) (let ((.def_137 (not .def_136))) (let ((.def_138 (and .def_137 .def_131))) (let ((.def_139 (not .def_138))) (let ((.def_140 (and .def_139 .def_127))) (let ((.def_141 (not .def_140))) (let ((.def_142 (and .def_49 .def_0))) (let ((.def_143 (or .def_9 .def_25))) (let ((.def_144 (and .def_143 .def_142))) (let ((.def_145 (not .def_144))) (let ((.def_146 (not A7))) (let ((.def_147 (not A4))) (let ((.def_148 (and .def_147 .def_146))) (let ((.def_149 (or .def_67 .def_9))) (let ((.def_150 (and .def_149 .def_148))) (let ((.def_151 (not .def_150))) (let ((.def_152 (or .def_151 .def_145))) (let ((.def_153 (not A6))) (let ((.def_154 (or .def_153 .def_6))) (let ((.def_155 (or .def_147 .def_69))) (let ((.def_156 (not .def_155))) (let ((.def_157 (and .def_156 .def_154))) (let ((.def_158 (or .def_67 A22))) (let ((.def_159 (not A9))) (let ((.def_160 (not A20))) (let ((.def_161 (or .def_160 .def_159))) (let ((.def_162 (and .def_161 .def_158))) (let ((.def_163 (or .def_162 .def_157))) (let ((.def_164 (or .def_163 .def_152))) (let ((.def_165 (and .def_164 .def_141))) (let ((.def_166 (and A5 .def_61))) (let ((.def_167 (not .def_166))) (let ((.def_168 (and A3 .def_18))) (let ((.def_169 (or .def_168 .def_167))) (let ((.def_170 (not .def_169))) (let ((.def_171 (and .def_98 .def_23))) (let ((.def_172 (not .def_171))) (let ((.def_173 (or A10 A13))) (let ((.def_174 (or .def_173 .def_172))) (let ((.def_175 (not .def_174))) (let ((.def_176 (or .def_175 .def_170))) (let ((.def_177 (not .def_176))) (let ((.def_178 (not A18))) (let ((.def_179 (or A14 .def_178))) (let ((.def_180 (or .def_25 A15))) (let ((.def_181 (and .def_180 .def_179))) (let ((.def_182 (or .def_83 .def_104))) (let ((.def_183 (not .def_182))) (let ((.def_184 (or .def_159 A4))) (let ((.def_185 (not .def_184))) (let ((.def_186 (and .def_185 .def_183))) (let ((.def_187 (and .def_186 .def_181))) (let ((.def_188 (and .def_187 .def_177))) (let ((.def_189 (not .def_188))) (let ((.def_190 (and .def_37 A1))) (let ((.def_191 (and .def_159 A9))) (let ((.def_192 (not .def_191))) (let ((.def_193 (or .def_192 .def_190))) (let ((.def_194 (not .def_193))) (let ((.def_195 (not A14))) (let ((.def_196 (and .def_195 .def_37))) (let ((.def_197 (not .def_196))) (let ((.def_198 (and A14 A14))) (let ((.def_199 (not .def_198))) (let ((.def_200 (or .def_199 .def_197))) (let ((.def_201 (or .def_200 .def_194))) (let ((.def_202 (and .def_83 .def_6))) (let ((.def_203 (and A6 .def_104))) (let ((.def_204 (or .def_203 .def_202))) (let ((.def_205 (= .def_178 .def_9))) (let ((.def_206 (not .def_205))) (let ((.def_207 (= .def_0 .def_6))) (let ((.def_208 (not .def_207))) (let ((.def_209 (or .def_208 .def_206))) (let ((.def_210 (not .def_209))) (let ((.def_211 (and .def_210 .def_204))) (let ((.def_212 (not .def_211))) (let ((.def_213 (or .def_212 .def_201))) (let ((.def_214 (and .def_213 .def_189))) (let ((.def_215 (or .def_214 .def_165))) (let ((.def_216 (not .def_215))) (let ((.def_217 (and .def_216 .def_114))) (let ((.def_218 (not .def_217))) .def_218))))))))))))))))))))))))))))))))))))))))))))))))))))))))))))))))))))))))))))))))))))))))))))))))))))))))))))))))))))))))))))))))))))))))))))))))))))))))))))))))))))))))))))))))))))))))))))))))))))))))))))))))))))))))))))
(check-sat)
